W = 32;
H = 32;
N = 27;
Ws = [3, 3, 3, 4, 3, 3, 3, 3, 4, 3, 4, 3, 3, 3, 3, 4, 3, 3, 4, 3, 4, 3, 4, 3, 3, 4, 3];
Hs = [27, 25, 24, 18, 23, 22, 18, 15, 11, 14, 10, 13, 12, 11, 10, 7, 9, 8, 6, 7, 5, 6, 4, 5, 4, 3, 3];